964701
964701
958513
955865
955865
954865
949843
944935
944935
941296
913616
913616
913616
913616
912679
912679
907701
907701
904963
904963
902253
885670
885670
869817
869817
869817
869817
869817
869817
869018
867899
867899
858562
855170
855170
855170
855170
852462
852462
852462
842522
842522
842522
842522
833399
833399
833399
833399
833399
833399
833399
828034
826192
822003
821782
820369
817787
817787
809144
809144
809144
806472
806472
805408
805408
805408
804437
802058
802058
799722
799722
799722
799722
788101
788101
788101
788101
788101
788101
782487
781532
781532
781532
781532
781532
779086
777779
769451
769451
769451
769451
767903
767903
767903
767903
767903
767903
765797
760890
760890
